# Cost: 390

# Tail Head Net
102 101 1
103 102 1
104 103 1
105 104 1
125 105 1
145 125 1
146 145 1
166 146 1
186 166 1
206 186 1
207 206 1
227 207 1
247 227 1
267 247 1
268 267 1
288 268 1
289 288 1
290 289 1
291 290 1
292 291 1
293 292 1
294 293 1
295 294 1
296 295 1
297 296 1
317 297 1
317 318 1
318 319 1
319 320 1
337 317 1
357 337 1
377 357 1
397 377 1
4 404 2
122 121 2
123 122 2
124 123 2
404 424 2
424 444 2
444 464 2
444 844 2
460 60 2
464 484 2
484 504 2
504 524 2
524 124 2
844 845 2
845 846 2
846 847 2
847 848 2
848 849 2
849 850 2
850 851 2
851 852 2
852 853 2
853 854 2
854 855 2
855 856 2
856 857 2
857 858 2
858 859 2
859 860 2
860 460 2
61 41 3
81 61 3
211 611 3
212 211 3
213 212 3
214 213 3
215 214 3
216 215 3
217 216 3
218 217 3
219 218 3
220 219 3
361 381 3
481 81 3
501 481 3
521 501 3
541 521 3
561 541 3
581 561 3
601 581 3
601 621 3
610 1010 3
611 610 3
621 641 3
641 661 3
661 681 3
681 701 3
701 721 3
721 741 3
741 761 3
761 361 3
1001 601 3
1002 1001 3
1003 1002 3
1004 1003 3
1005 1004 3
1006 1005 3
1007 1006 3
1008 1007 3
1009 1008 3
1010 1009 3
8 28 4
28 48 4
48 68 4
68 88 4
88 108 4
108 128 4
128 148 4
148 168 4
168 568 4
356 376 4
376 396 4
568 569 4
569 570 4
570 571 4
571 572 4
572 592 4
592 593 4
593 613 4
613 633 4
633 653 4
653 673 4
673 693 4
693 713 4
713 733 4
733 734 4
734 735 4
735 736 4
736 737 4
736 756 4
737 738 4
738 739 4
739 740 4
740 340 4
756 356 4
9 29 5
10 9 5
10 11 5
11 12 5
12 13 5
13 14 5
29 49 5
49 69 5
69 89 5
89 109 5
109 129 5
129 149 5
149 169 5
169 189 5
189 209 5
209 609 5
344 364 5
345 344 5
346 345 5
347 346 5
364 384 5
383 382 5
384 383 5
609 629 5
628 648 5
629 628 5
648 668 5
668 688 5
688 708 5
708 728 5
728 748 5
747 347 5
748 747 5
22 21 6
23 22 6
24 23 6
25 24 6
26 25 6
27 7 6
27 26 6
47 27 6
67 47 6
87 67 6
107 87 6
127 107 6
147 127 6
167 147 6
187 167 6
188 187 6
208 188 6
228 208 6
229 228 6
230 229 6
231 230 6
232 231 6
233 232 6
234 233 6
235 234 6
236 235 6
237 236 6
238 237 6
239 238 6
259 239 6
260 259 6
280 260 6
182 181 7
183 182 7
184 183 7
185 184 7
387 787 7
399 400 7
585 185 7
605 585 7
625 605 7
645 625 7
665 645 7
685 665 7
686 685 7
706 686 7
726 706 7
746 726 7
766 746 7
786 766 7
787 786 7
787 788 7
788 789 7
789 790 7
790 791 7
791 792 7
792 793 7
793 794 7
794 795 7
795 796 7
796 797 7
797 798 7
798 799 7
799 399 7
261 241 8
281 261 8
301 281 8
302 301 8
303 302 8
304 303 8
305 304 8
306 305 8
307 306 8
308 307 8
328 308 8
329 328 8
349 329 8
369 349 8
370 369 8
371 370 8
391 371 8
3 403 9
365 385 9
403 423 9
423 443 9
443 463 9
463 483 9
483 503 9
503 523 9
523 543 9
543 563 9
563 564 9
564 584 9
584 604 9
604 624 9
624 644 9
644 664 9
664 684 9
684 704 9
704 724 9
724 744 9
744 764 9
764 765 9
765 365 9
17 37 10
37 57 10
57 77 10
77 97 10
97 117 10
117 137 10
137 157 10
155 175 10
156 155 10
157 156 10
172 192 10
173 172 10
174 173 10
175 174 10
191 591 10
192 191 10
322 321 10
323 322 10
324 323 10
325 324 10
326 325 10
327 326 10
587 607 10
588 587 10
589 588 10
590 589 10
591 590 10
607 627 10
627 647 10
647 667 10
667 687 10
687 707 10
707 727 10
727 327 10
366 367 11
367 368 11
368 768 11
386 366 11
768 769 11
769 770 11
770 771 11
771 772 11
772 773 11
773 774 11
774 775 11
775 776 11
776 777 11
777 778 11
778 779 11
779 780 11
780 380 11
18 38 12
38 58 12
58 78 12
78 98 12
98 118 12
118 119 12
119 120 12
120 140 12
140 160 12
160 180 12
39 19 13
59 39 13
79 59 13
315 715 13
335 315 13
355 335 13
374 375 13
375 355 13
394 374 13
479 79 13
499 479 13
519 499 13
539 519 13
559 539 13
577 578 13
578 579 13
579 559 13
597 577 13
617 597 13
637 617 13
657 637 13
677 657 13
697 677 13
715 716 13
716 717 13
717 697 13
15 35 14
16 15 14
32 52 14
33 32 14
34 33 14
35 34 14
52 72 14
72 92 14
90 490 14
91 90 14
92 91 14
222 221 14
223 222 14
224 223 14
225 224 14
226 225 14
486 506 14
487 486 14
488 487 14
489 488 14
490 489 14
506 526 14
526 546 14
546 566 14
566 586 14
586 606 14
606 626 14
626 226 14
